(set-logic QF_LRA)
(declare-fun X0 () Real )
(declare-fun Y0 () Real )
(declare-fun X1 () Real )
(declare-fun Y1 () Real )
(declare-fun X2 () Real )
(declare-fun Y2 () Real )
(declare-fun X3 () Real )
(declare-fun Y3 () Real )
(declare-fun X4 () Real )
(declare-fun Y4 () Real )
(declare-fun X5 () Real )
(declare-fun Y5 () Real )
(declare-fun Z () Real )
(declare-fun k () Real )
(assert (let
(( $goal (>= Z k) ))
(let
((
$phi ( and 
( or ( <= ( + X0 9 ) X1 )  ( <= ( + X1 76 ) X0 )  ( <= ( + Y0 28 ) Y1 )  ( <= ( + Y1 89 ) Y0 )  )
( or ( <= ( + X0 9 ) X2 )  ( <= ( + X2 2 ) X0 )  ( <= ( + Y0 28 ) Y2 )  ( <= ( + Y2 15 ) Y0 )  )
( or ( <= ( + X0 9 ) X3 )  ( <= ( + X3 100 ) X0 )  ( <= ( + Y0 28 ) Y3 )  ( <= ( + Y3 52 ) Y0 )  )
( or ( <= ( + X0 9 ) X4 )  ( <= ( + X4 46 ) X0 )  ( <= ( + Y0 28 ) Y4 )  ( <= ( + Y4 85 ) Y0 )  )
( or ( <= ( + X0 9 ) X5 )  ( <= ( + X5 47 ) X0 )  ( <= ( + Y0 28 ) Y5 )  ( <= ( + Y5 59 ) Y0 )  )
( or ( <= ( + X1 76 ) X2 )  ( <= ( + X2 2 ) X1 )  ( <= ( + Y1 89 ) Y2 )  ( <= ( + Y2 15 ) Y1 )  )
( or ( <= ( + X1 76 ) X3 )  ( <= ( + X3 100 ) X1 )  ( <= ( + Y1 89 ) Y3 )  ( <= ( + Y3 52 ) Y1 )  )
( or ( <= ( + X1 76 ) X4 )  ( <= ( + X4 46 ) X1 )  ( <= ( + Y1 89 ) Y4 )  ( <= ( + Y4 85 ) Y1 )  )
( or ( <= ( + X1 76 ) X5 )  ( <= ( + X5 47 ) X1 )  ( <= ( + Y1 89 ) Y5 )  ( <= ( + Y5 59 ) Y1 )  )
( or ( <= ( + X2 2 ) X3 )  ( <= ( + X3 100 ) X2 )  ( <= ( + Y2 15 ) Y3 )  ( <= ( + Y3 52 ) Y2 )  )
( or ( <= ( + X2 2 ) X4 )  ( <= ( + X4 46 ) X2 )  ( <= ( + Y2 15 ) Y4 )  ( <= ( + Y4 85 ) Y2 )  )
( or ( <= ( + X2 2 ) X5 )  ( <= ( + X5 47 ) X2 )  ( <= ( + Y2 15 ) Y5 )  ( <= ( + Y5 59 ) Y2 )  )
( or ( <= ( + X3 100 ) X4 )  ( <= ( + X4 46 ) X3 )  ( <= ( + Y3 52 ) Y4 )  ( <= ( + Y4 85 ) Y3 )  )
( or ( <= ( + X3 100 ) X5 )  ( <= ( + X5 47 ) X3 )  ( <= ( + Y3 52 ) Y5 )  ( <= ( + Y5 59 ) Y3 )  )
( or ( <= ( + X4 46 ) X5 )  ( <= ( + X5 47 ) X4 )  ( <= ( + Y4 85 ) Y5 )  ( <= ( + Y5 59 ) Y4 )  )
( >= X0 0)
( <= ( + X0 9) Z)
( >= Y0 0)
( <= ( + Y0 28 ) 100)
( >= X1 0)
( <= ( + X1 76) Z)
( >= Y1 0)
( <= ( + Y1 89 ) 100)
( >= X2 0)
( <= ( + X2 2) Z)
( >= Y2 0)
( <= ( + Y2 15 ) 100)
( >= X3 0)
( <= ( + X3 100) Z)
( >= Y3 0)
( <= ( + Y3 52 ) 100)
( >= X4 0)
( <= ( + X4 46) Z)
( >= Y4 0)
( <= ( + Y4 85 ) 100)
( >= X5 0)
( <= ( + X5 47) Z)
( >= Y5 0)
( <= ( + Y5 59 ) 100)
) )
)(=> $phi $goal))))